tsp_instances/TSP20/instance50.tsp
NODE_COORD_SECTION
0 189 197
1 57 74
2 85 179
3 92 127
4 15 197
5 44 136
6 107 191
7 69 131
8 131 8
9 123 20
10 7 66
11 200 27
12 48 168
13 86 52
14 104 190
15 36 10
16 46 131
17 132 16
18 98 57
19 105 86
