tsp_instances/TSP20/instance50.opt.tour
TOUR_SECTION
1
7
15
3
5
13
6
17
8
4
20
19
14
2
11
16
10
18
9
12
-1